400 1582 
1 5 1
1 7 1
1 10 1
1 11 1
1 12 1
1 22 1
1 30 1
1 33 1
1 45 1
1 59 1
1 61 1
1 71 1
1 74 1
1 75 1
1 81 1
1 90 1
1 91 1
1 94 1
1 105 1
1 108 1
1 115 1
1 116 1
1 126 1
1 128 1
1 133 1
1 143 1
1 146 1
1 158 1
1 165 1
1 173 1
1 215 1
1 219 1
1 228 1
1 271 1
1 299 1
1 303 1
1 310 1
1 312 1
1 327 1
1 347 1
1 370 1
1 371 1
1 397 1
2 5 1
2 6 1
2 7 1
2 8 1
2 11 1
2 14 1
2 17 1
2 19 1
2 21 1
2 24 1
2 25 1
2 32 1
2 35 1
2 55 1
2 62 1
2 71 1
2 94 1
2 114 1
2 133 1
2 140 1
2 145 1
2 149 1
2 164 1
2 165 1
2 181 1
2 190 1
2 208 1
2 220 1
2 264 1
2 288 1
2 295 1
2 316 1
2 333 1
2 353 1
2 377 1
2 381 1
2 396 1
3 5 1
3 6 1
3 8 1
3 9 1
3 13 1
3 15 1
3 18 1
3 22 1
3 25 1
3 26 1
3 29 1
3 30 1
3 34 1
3 36 1
3 37 1
3 41 1
3 45 1
3 48 1
3 49 1
3 50 1
3 54 1
3 56 1
3 60 1
3 65 1
3 66 1
3 68 1
3 86 1
3 91 1
3 99 1
3 100 1
3 101 1
3 132 1
3 137 1
3 143 1
3 145 1
3 161 1
3 168 1
3 174 1
3 192 1
3 203 1
3 204 1
3 233 1
3 237 1
3 244 1
3 249 1
3 260 1
3 268 1
3 299 1
3 300 1
3 326 1
3 339 1
3 343 1
3 346 1
3 348 1
3 355 1
3 384 1
3 385 1
3 386 1
4 5 1
4 6 1
4 7 1
4 8 1
4 12 1
4 13 1
4 16 1
4 18 1
4 51 1
4 52 1
4 57 1
4 72 1
4 98 1
4 100 1
4 101 1
4 103 1
4 113 1
4 126 1
4 133 1
4 134 1
4 143 1
4 151 1
4 164 1
4 189 1
4 208 1
4 210 1
4 214 1
4 237 1
4 272 1
4 284 1
4 294 1
4 297 1
4 307 1
4 326 1
4 331 1
4 338 1
4 357 1
4 379 1
4 389 1
4 398 1
5 6 1
5 9 1
5 10 1
5 13 1
5 15 1
5 16 1
5 17 1
5 20 1
5 23 1
5 27 1
5 28 1
5 32 1
5 34 1
5 37 1
5 51 1
5 56 1
5 61 1
5 67 1
5 73 1
5 92 1
5 95 1
5 100 1
5 105 1
5 111 1
5 123 1
5 125 1
5 137 1
5 145 1
5 147 1
5 152 1
5 158 1
5 168 1
5 178 1
5 180 1
5 181 1
5 182 1
5 185 1
5 186 1
5 202 1
5 210 1
5 215 1
5 221 1
5 224 1
5 233 1
5 243 1
5 252 1
5 262 1
5 265 1
5 276 1
5 283 1
5 285 1
5 314 1
5 319 1
5 354 1
5 383 1
6 7 1
6 8 1
6 9 1
6 10 1
6 11 1
6 12 1
6 13 1
6 14 1
6 16 1
6 19 1
6 23 1
6 24 1
6 27 1
6 29 1
6 34 1
6 41 1
6 44 1
6 49 1
6 52 1
6 53 1
6 57 1
6 59 1
6 63 1
6 64 1
6 75 1
6 81 1
6 82 1
6 88 1
6 91 1
6 95 1
6 99 1
6 102 1
6 111 1
6 124 1
6 138 1
6 140 1
6 153 1
6 170 1
6 179 1
6 182 1
6 186 1
6 188 1
6 191 1
6 193 1
6 205 1
6 207 1
6 213 1
6 214 1
6 220 1
6 232 1
6 241 1
6 249 1
6 282 1
6 298 1
6 299 1
6 305 1
6 313 1
6 316 1
6 321 1
6 335 1
6 345 1
6 351 1
6 359 1
6 363 1
6 374 1
6 387 1
6 389 1
6 392 1
6 394 1
6 395 1
7 9 1
7 15 1
7 16 1
7 19 1
7 31 1
7 38 1
7 43 1
7 44 1
7 55 1
7 73 1
7 84 1
7 89 1
7 116 1
7 119 1
7 121 1
7 171 1
7 181 1
7 189 1
7 195 1
7 200 1
7 234 1
7 241 1
7 247 1
7 274 1
7 289 1
7 299 1
7 317 1
7 369 1
7 376 1
7 380 1
8 17 1
8 20 1
8 21 1
8 24 1
8 29 1
8 36 1
8 38 1
8 40 1
8 42 1
8 67 1
8 108 1
8 146 1
8 153 1
8 164 1
8 184 1
8 216 1
8 225 1
8 270 1
8 285 1
8 296 1
8 313 1
8 322 1
8 342 1
8 347 1
8 400 1
9 10 1
9 14 1
9 15 1
9 17 1
9 18 1
9 24 1
9 31 1
9 35 1
9 39 1
9 44 1
9 46 1
9 47 1
9 54 1
9 63 1
9 77 1
9 78 1
9 85 1
9 93 1
9 94 1
9 97 1
9 110 1
9 115 1
9 117 1
9 154 1
9 163 1
9 209 1
9 221 1
9 272 1
9 279 1
9 282 1
9 288 1
9 294 1
9 297 1
9 328 1
9 340 1
9 345 1
9 361 1
9 371 1
9 381 1
10 11 1
10 12 1
10 18 1
10 27 1
10 82 1
10 96 1
10 105 1
10 119 1
10 131 1
10 168 1
10 177 1
10 191 1
10 233 1
10 235 1
10 251 1
10 269 1
10 280 1
10 286 1
10 287 1
10 296 1
10 306 1
10 319 1
10 351 1
11 14 1
11 23 1
11 32 1
11 37 1
11 40 1
11 66 1
11 80 1
11 96 1
11 101 1
11 148 1
11 149 1
11 172 1
11 181 1
11 183 1
11 186 1
11 188 1
11 193 1
11 195 1
11 204 1
11 215 1
11 252 1
11 287 1
11 293 1
11 298 1
11 305 1
11 316 1
11 358 1
12 97 1
12 137 1
12 173 1
12 337 1
13 19 1
13 20 1
13 25 1
13 26 1
13 34 1
13 35 1
13 39 1
13 45 1
13 51 1
13 67 1
13 69 1
13 94 1
13 110 1
13 127 1
13 144 1
13 148 1
13 155 1
13 163 1
13 190 1
13 202 1
13 218 1
13 254 1
13 262 1
13 290 1
13 294 1
13 302 1
13 308 1
13 320 1
13 321 1
13 330 1
13 393 1
13 400 1
14 21 1
14 22 1
14 26 1
14 31 1
14 42 1
14 53 1
14 88 1
14 90 1
14 92 1
14 108 1
14 138 1
14 153 1
14 161 1
14 212 1
14 231 1
14 256 1
14 259 1
14 275 1
14 277 1
14 323 1
14 366 1
15 20 1
15 28 1
15 44 1
15 46 1
15 47 1
15 48 1
15 52 1
15 58 1
15 80 1
15 83 1
15 90 1
15 98 1
15 135 1
15 223 1
15 241 1
15 267 1
15 273 1
15 390 1
16 25 1
16 49 1
16 57 1
16 60 1
16 124 1
16 130 1
16 206 1
16 210 1
16 242 1
16 268 1
16 383 1
17 21 1
17 23 1
17 33 1
17 54 1
17 87 1
17 110 1
17 118 1
17 120 1
17 124 1
17 157 1
17 284 1
18 35 1
18 36 1
18 43 1
18 46 1
18 50 1
18 83 1
18 89 1
18 97 1
18 123 1
18 176 1
18 186 1
18 216 1
18 258 1
18 296 1
18 328 1
18 347 1
18 363 1
19 70 1
19 75 1
19 102 1
19 182 1
20 27 1
20 28 1
20 29 1
20 64 1
20 104 1
20 122 1
20 125 1
20 130 1
20 154 1
20 176 1
20 178 1
20 219 1
20 329 1
20 358 1
20 383 1
20 390 1
21 22 1
21 26 1
21 32 1
21 33 1
21 65 1
21 122 1
21 196 1
21 201 1
21 205 1
21 248 1
21 273 1
21 313 1
22 30 1
22 89 1
22 92 1
22 104 1
22 111 1
22 112 1
22 120 1
22 143 1
22 151 1
22 154 1
22 167 1
22 180 1
22 197 1
22 201 1
22 237 1
22 254 1
22 264 1
22 266 1
22 276 1
22 278 1
22 307 1
22 308 1
22 320 1
22 325 1
22 357 1
22 391 1
23 73 1
23 74 1
23 79 1
23 109 1
23 121 1
23 123 1
23 199 1
23 200 1
23 218 1
23 236 1
23 263 1
23 338 1
23 350 1
24 31 1
24 36 1
24 78 1
24 229 1
24 256 1
24 290 1
25 28 1
25 33 1
25 40 1
25 45 1
25 49 1
25 50 1
25 51 1
25 68 1
25 72 1
25 80 1
25 116 1
25 122 1
25 128 1
25 199 1
25 219 1
25 226 1
25 240 1
25 291 1
25 301 1
25 372 1
25 377 1
25 393 1
26 41 1
26 42 1
26 59 1
26 79 1
26 99 1
26 137 1
26 185 1
26 194 1
26 198 1
26 230 1
26 252 1
26 269 1
26 288 1
26 352 1
26 362 1
27 30 1
27 39 1
27 56 1
27 63 1
27 84 1
27 107 1
27 141 1
27 146 1
27 187 1
27 190 1
27 224 1
27 239 1
27 293 1
27 310 1
27 394 1
28 47 1
28 48 1
28 274 1
28 289 1
28 291 1
28 398 1
29 41 1
29 42 1
29 57 1
29 70 1
29 102 1
29 108 1
29 109 1
29 136 1
29 141 1
29 163 1
29 166 1
29 183 1
29 234 1
29 236 1
29 265 1
29 305 1
29 332 1
29 333 1
30 38 1
30 54 1
30 55 1
30 62 1
30 63 1
30 107 1
30 175 1
30 179 1
30 211 1
30 244 1
30 255 1
30 265 1
30 288 1
30 327 1
30 341 1
30 364 1
30 375 1
30 380 1
30 400 1
31 37 1
31 38 1
31 43 1
31 55 1
31 58 1
31 66 1
31 77 1
31 82 1
31 103 1
31 161 1
31 199 1
31 234 1
31 312 1
31 354 1
31 376 1
32 61 1
32 84 1
32 85 1
32 118 1
32 188 1
32 305 1
32 329 1
32 336 1
33 95 1
33 110 1
33 115 1
33 130 1
33 238 1
33 255 1
33 281 1
33 286 1
33 328 1
34 39 1
34 43 1
34 47 1
34 48 1
34 58 1
34 80 1
34 83 1
34 88 1
34 114 1
34 160 1
34 175 1
34 203 1
34 236 1
34 250 1
34 264 1
34 267 1
34 272 1
34 348 1
34 379 1
34 385 1
35 40 1
35 392 1
36 50 1
36 72 1
36 84 1
36 113 1
36 166 1
36 189 1
36 194 1
36 231 1
36 334 1
37 75 1
37 114 1
37 122 1
37 126 1
37 139 1
37 170 1
37 196 1
37 208 1
37 256 1
38 183 1
38 259 1
39 66 1
39 112 1
39 314 1
40 140 1
40 153 1
40 200 1
40 215 1
41 46 1
41 65 1
41 68 1
41 72 1
41 120 1
41 127 1
41 131 1
41 142 1
41 165 1
41 171 1
41 193 1
41 206 1
41 298 1
41 360 1
42 128 1
42 169 1
42 309 1
42 369 1
42 372 1
43 69 1
43 76 1
43 118 1
43 206 1
43 270 1
43 379 1
44 53 1
44 56 1
44 58 1
44 89 1
44 91 1
44 129 1
44 212 1
44 249 1
44 294 1
45 162 1
45 176 1
45 210 1
45 253 1
45 364 1
46 52 1
46 59 1
46 64 1
47 106 1
47 373 1
48 76 1
48 79 1
48 85 1
48 86 1
48 147 1
48 150 1
48 162 1
48 365 1
49 60 1
49 295 1
50 64 1
50 101 1
50 106 1
50 127 1
50 167 1
50 264 1
51 87 1
51 112 1
51 117 1
51 125 1
51 136 1
51 142 1
51 156 1
51 166 1
51 192 1
51 204 1
51 217 1
51 222 1
51 277 1
51 293 1
51 337 1
51 348 1
51 375 1
51 396 1
52 61 1
52 62 1
52 82 1
52 87 1
52 92 1
52 193 1
52 314 1
52 385 1
53 93 1
53 172 1
53 257 1
53 309 1
53 339 1
54 74 1
54 81 1
54 90 1
54 120 1
54 316 1
55 60 1
55 70 1
55 79 1
55 98 1
55 142 1
55 159 1
55 177 1
55 203 1
55 207 1
55 213 1
55 219 1
55 238 1
55 338 1
55 349 1
55 396 1
55 397 1
56 67 1
56 87 1
56 102 1
56 290 1
56 309 1
57 71 1
57 86 1
57 96 1
57 145 1
57 178 1
57 183 1
57 191 1
57 212 1
57 216 1
57 225 1
57 238 1
57 239 1
57 269 1
57 287 1
57 303 1
57 315 1
57 346 1
57 381 1
58 62 1
58 73 1
58 78 1
58 100 1
58 129 1
58 152 1
58 194 1
58 258 1
58 276 1
58 325 1
58 377 1
58 395 1
59 211 1
60 65 1
60 81 1
60 86 1
60 116 1
60 140 1
60 141 1
60 149 1
60 191 1
60 290 1
60 386 1
61 69 1
61 74 1
61 139 1
61 260 1
61 261 1
61 289 1
61 297 1
62 69 1
62 85 1
62 103 1
62 106 1
62 155 1
62 179 1
62 234 1
62 247 1
62 248 1
62 326 1
62 329 1
63 71 1
63 180 1
63 223 1
63 256 1
63 315 1
63 371 1
63 395 1
64 182 1
64 342 1
65 68 1
65 156 1
65 226 1
65 248 1
65 374 1
66 113 1
66 148 1
66 169 1
66 355 1
66 387 1
67 70 1
67 104 1
67 169 1
67 243 1
67 330 1
67 334 1
67 373 1
67 378 1
68 83 1
68 96 1
68 97 1
68 98 1
68 134 1
68 232 1
68 321 1
68 330 1
68 361 1
69 76 1
69 77 1
69 99 1
69 113 1
69 159 1
69 222 1
69 240 1
69 331 1
69 336 1
69 352 1
70 78 1
70 118 1
70 119 1
70 170 1
70 195 1
70 214 1
70 233 1
70 247 1
70 282 1
70 291 1
70 343 1
71 119 1
71 164 1
71 173 1
71 177 1
71 205 1
71 311 1
71 341 1
71 387 1
72 112 1
72 142 1
72 327 1
72 359 1
73 175 1
73 216 1
73 367 1
74 76 1
74 151 1
74 157 1
74 159 1
74 161 1
74 315 1
74 317 1
75 199 1
75 251 1
76 77 1
76 114 1
76 131 1
76 144 1
76 158 1
76 253 1
77 228 1
77 250 1
77 258 1
77 370 1
78 117 1
78 121 1
78 126 1
78 158 1
78 212 1
78 306 1
78 308 1
79 93 1
79 150 1
79 177 1
79 189 1
79 207 1
79 245 1
79 266 1
79 354 1
79 356 1
79 362 1
80 258 1
80 350 1
81 129 1
81 154 1
81 238 1
81 342 1
82 88 1
82 95 1
82 107 1
82 132 1
82 162 1
82 185 1
82 246 1
83 356 1
83 361 1
84 184 1
84 194 1
84 321 1
84 382 1
84 390 1
85 141 1
85 198 1
86 105 1
86 225 1
86 275 1
86 280 1
86 391 1
88 93 1
88 156 1
88 314 1
88 360 1
89 235 1
89 274 1
89 301 1
89 328 1
90 103 1
90 202 1
90 209 1
90 223 1
91 196 1
91 263 1
92 117 1
92 169 1
92 251 1
92 292 1
92 338 1
93 115 1
93 139 1
93 254 1
93 259 1
94 133 1
94 160 1
94 300 1
94 363 1
95 211 1
96 109 1
96 152 1
96 262 1
96 297 1
98 134 1
98 180 1
99 104 1
99 157 1
99 185 1
99 239 1
99 359 1
99 372 1
100 232 1
101 111 1
101 136 1
101 197 1
101 221 1
101 263 1
101 307 1
101 340 1
102 106 1
102 203 1
102 217 1
103 107 1
103 273 1
103 326 1
103 355 1
105 123 1
105 206 1
105 341 1
106 132 1
106 135 1
106 151 1
106 152 1
106 187 1
106 245 1
106 250 1
106 281 1
106 322 1
107 109 1
107 166 1
107 246 1
107 323 1
108 272 1
108 279 1
108 353 1
109 149 1
109 207 1
109 275 1
110 222 1
110 286 1
110 345 1
111 124 1
111 134 1
111 138 1
111 253 1
111 266 1
111 337 1
111 389 1
112 155 1
112 159 1
112 160 1
112 165 1
112 167 1
112 171 1
112 184 1
112 196 1
113 135 1
113 187 1
113 197 1
113 218 1
114 175 1
114 187 1
114 243 1
114 263 1
114 322 1
114 398 1
115 121 1
115 128 1
115 135 1
115 163 1
115 192 1
115 244 1
115 292 1
115 385 1
115 400 1
116 129 1
116 386 1
118 136 1
118 257 1
118 284 1
118 325 1
119 311 1
120 174 1
120 211 1
120 261 1
121 155 1
121 225 1
121 242 1
121 250 1
121 363 1
121 374 1
122 131 1
122 170 1
122 249 1
123 255 1
124 130 1
124 172 1
124 179 1
124 198 1
124 269 1
124 346 1
124 353 1
124 369 1
125 127 1
125 147 1
125 254 1
125 261 1
125 271 1
125 310 1
125 332 1
125 351 1
127 278 1
127 340 1
128 144 1
128 147 1
128 178 1
128 213 1
128 217 1
128 248 1
128 277 1
128 366 1
129 132 1
130 138 1
130 167 1
130 298 1
132 253 1
132 292 1
132 303 1
133 340 1
134 231 1
134 374 1
134 382 1
135 139 1
135 146 1
135 198 1
135 201 1
135 240 1
135 271 1
135 273 1
135 371 1
135 390 1
136 200 1
136 324 1
136 333 1
137 265 1
137 392 1
138 150 1
138 190 1
138 197 1
138 201 1
139 176 1
139 221 1
139 275 1
140 156 1
140 162 1
140 184 1
140 229 1
140 285 1
140 366 1
141 144 1
141 148 1
141 173 1
141 204 1
142 227 1
142 312 1
143 157 1
143 332 1
143 370 1
144 365 1
145 270 1
145 381 1
146 320 1
147 150 1
147 313 1
147 388 1
148 237 1
149 174 1
149 300 1
149 388 1
150 350 1
150 382 1
151 209 1
151 307 1
151 335 1
153 224 1
154 209 1
154 329 1
155 227 1
156 168 1
156 230 1
156 235 1
156 244 1
156 279 1
156 304 1
156 360 1
156 370 1
157 195 1
157 332 1
157 337 1
158 172 1
158 222 1
158 226 1
159 160 1
159 205 1
159 231 1
159 246 1
159 262 1
159 364 1
159 367 1
160 229 1
161 345 1
161 352 1
163 274 1
164 309 1
165 303 1
168 171 1
168 227 1
168 247 1
168 259 1
168 320 1
169 228 1
169 295 1
170 192 1
170 227 1
172 214 1
172 280 1
172 368 1
173 174 1
174 245 1
174 354 1
174 362 1
174 388 1
175 281 1
176 327 1
176 344 1
176 382 1
177 188 1
177 318 1
178 302 1
178 369 1
179 229 1
180 235 1
180 276 1
180 283 1
181 230 1
182 230 1
182 236 1
182 243 1
183 226 1
183 239 1
183 260 1
185 202 1
186 224 1
186 242 1
186 278 1
186 306 1
188 213 1
189 334 1
189 356 1
190 208 1
190 331 1
191 287 1
193 242 1
193 323 1
194 301 1
194 318 1
196 349 1
197 308 1
197 324 1
199 228 1
199 257 1
199 270 1
199 339 1
199 368 1
199 392 1
200 218 1
200 346 1
202 223 1
202 367 1
203 339 1
204 220 1
205 246 1
205 376 1
206 364 1
207 255 1
207 268 1
208 349 1
210 285 1
210 348 1
211 220 1
211 302 1
211 389 1
211 399 1
212 245 1
214 240 1
215 217 1
215 252 1
215 319 1
215 388 1
215 395 1
217 277 1
218 241 1
218 257 1
219 268 1
224 279 1
225 232 1
230 267 1
230 306 1
231 251 1
231 301 1
231 353 1
232 379 1
233 291 1
233 358 1
233 387 1
235 260 1
235 312 1
236 344 1
237 318 1
237 335 1
238 315 1
238 317 1
238 391 1
239 267 1
239 311 1
239 330 1
240 283 1
241 350 1
242 289 1
243 373 1
244 334 1
244 399 1
245 292 1
246 322 1
247 261 1
247 266 1
247 278 1
247 302 1
247 304 1
247 355 1
247 391 1
248 359 1
249 300 1
250 296 1
250 368 1
251 384 1
252 286 1
252 384 1
253 380 1
254 271 1
254 393 1
255 282 1
255 377 1
256 342 1
256 394 1
257 304 1
257 310 1
257 318 1
257 323 1
257 383 1
258 311 1
260 280 1
260 384 1
260 394 1
261 293 1
263 347 1
263 373 1
270 281 1
275 324 1
275 325 1
275 357 1
277 331 1
281 283 1
281 284 1
281 349 1
282 360 1
284 336 1
284 362 1
286 295 1
286 317 1
288 367 1
289 397 1
291 335 1
291 344 1
292 336 1
293 358 1
295 365 1
296 304 1
296 368 1
296 375 1
301 396 1
302 399 1
309 319 1
312 343 1
313 357 1
313 372 1
318 324 1
320 351 1
321 365 1
321 376 1
324 333 1
325 341 1
328 343 1
330 344 1
336 352 1
340 356 1
343 378 1
345 378 1
347 380 1
349 378 1
352 366 1
356 361 1
357 398 1
360 375 1
362 393 1
375 386 1
390 397 1
396 399 1
